/*********************************************
Data for Question One Instance Two 
 *********************************************/
P=6;

S=28;

C= [402,	473,	544,	447,	329,	351];
 

f=2360;

h= [  0.68,	0.45,	0.40,	0.49,	0.54,	1];



p0=1;



Istart= [53,245, 534, 346, 68, 22];



D = [ [ 265,   0,    0, 265,  0,  0,  0,  0, 265, 123,  0,   0,265,265,   0,   0,    0, 265,  0,  0,  0,  0, 265, 123,  0, 265,265,265],
  [   0,   0,  150, 150,  0,  0,  0,150, 150,   0,  0, 150,  0,  0,   0,   0,  150, 150,  0,  0,  0,150, 150,   0,  0, 150,  0,  0],
  [   0, 300,    0,   0,  0,300,300,  0,   0,   0,  0,   0,300,  0,   0, 150,    0,   0,  0,300,  0,300,   0,   0,  0,   0,300,  0],
  [   0,   0,    0,   0,  0,  0,  0,  0,   0,   0,325, 325,  0,150,   0,   0,    0,   0,  0,  0,  0,150,   0,   0,  0, 325,  0,150],
  [   0,   0,    0,   0,  0,  0,240,  0,   0,   0,120,   0,  0,  0,   0, 120,    0,   0,120,  0,120,  0,   0,   0,120,   0,120,  0],
  [   0,   0,    0,   0,  0,  0,  0,  0, 235,   0,  0,   0,235,235, 167,   0,    0,   0,  0,  0,235,  0,   0,   0,470, 235,235,235]];